c This is a CNF SAT formula in the DIMACS CNF format,
c produced with the bc2cnf translator by Tommi Junttila;
c see http://users.ics.aalto.fi/tjunttil/circuits/index.html
c Z <-> 1
c N121 <-> 2
c N120 <-> 3
c YB <-> 4
c N110 <-> 5
c N109 <-> 6
c N108 <-> 7
c N107 <-> 8
c C3 <-> 9
c N106 <-> 10
c N105 <-> 11
c C2 <-> 12
c N103 <-> 13
c N102 <-> 14
c YA <-> 15
c N29 <-> 16
c N28 <-> 17
c N27 <-> 18
c N26 <-> 19
c N25 <-> 20
c N24 <-> 21
c N23 <-> 22
c N22 <-> 23
c N21 <-> 24
c N20 <-> 25
c N19 <-> 26
c N18 <-> 27
c N17 <-> 28
c N16 <-> 29
c N15 <-> 30
c N14 <-> 31
c N13 <-> 32
c N104 <-> 33
c N12 <-> 33
c N11 <-> 34
c N101 <-> 35
c N10 <-> 35
c N9 <-> 36
c C1 <-> 37
c N8 <-> 38
c N7 <-> 39
c N6 <-> 40
c B2 <-> 41
c A2 <-> 42
c N5 <-> 43
c N4 <-> 44
c N3 <-> 45
c B1 <-> 46
c A1 <-> 47
c N2 <-> 48
c N1 <-> 49
c B3 <-> 50
c A3 <-> 51
p cnf 51 146
1 -2 0
1 -3 0
-1 3 2 0
1 0
-2 -4 0
-2 15 0
2 -15 4 0
-3 -15 0
-3 4 0
3 -4 15 0
4 -5 0
4 -6 0
4 -7 0
4 -8 0
-4 8 7 6 5 0
-5 9 0
-5 50 0
-5 51 0
5 -51 -50 -9 0
-6 -9 0
-6 -50 0
-6 51 0
6 -51 50 9 0
-7 -9 0
-7 -51 0
-7 50 0
7 -50 51 9 0
-8 9 0
-8 -51 0
-8 -50 0
8 50 51 -9 0
9 -10 0
9 -11 0
9 -33 0
-9 33 11 10 0
-10 12 0
-10 41 0
10 -41 -12 0
-11 12 0
-11 42 0
11 -42 -12 0
12 -13 0
12 -14 0
12 -35 0
-12 35 14 13 0
-13 37 0
-13 46 0
13 -46 -37 0
-14 37 0
-14 47 0
14 -47 -37 0
15 -16 0
15 -31 0
-15 31 16 0
-16 17 0
-16 28 0
16 -28 -17 0
-17 18 0
-17 19 0
-17 21 0
17 -21 -19 -18 0
18 41 0
18 42 0
-18 -42 -41 0
19 -20 0
19 -22 0
-19 22 20 0
20 46 0
20 47 0
-20 -47 -46 0
21 37 0
21 -22 0
21 -25 0
-21 25 22 -37 0
-22 23 0
-22 24 0
22 -24 -23 0
23 -41 0
23 42 0
-23 -42 41 0
24 41 0
24 -42 0
-24 42 -41 0
-25 26 0
-25 27 0
25 -27 -26 0
26 -46 0
26 47 0
-26 -47 46 0
27 46 0
27 -47 0
-27 47 -46 0
28 -29 0
28 -30 0
-28 30 29 0
-29 -50 0
-29 51 0
29 -51 50 0
-30 -51 0
-30 50 0
30 -50 51 0
-31 32 0
-31 48 0
-31 49 0
31 -49 -48 -32 0
32 -33 0
32 -34 0
32 -36 0
-32 36 34 33 0
-33 41 0
-33 42 0
33 -42 -41 0
-34 35 0
-34 38 0
34 -38 -35 0
-35 46 0
-35 47 0
35 -47 -46 0
-36 37 0
-36 38 0
-36 43 0
36 -43 -38 -37 0
38 -39 0
38 -40 0
-38 40 39 0
-39 -41 0
-39 42 0
39 -42 41 0
-40 41 0
-40 -42 0
40 42 -41 0
43 -44 0
43 -45 0
-43 45 44 0
-44 -46 0
-44 47 0
44 -47 46 0
-45 46 0
-45 -47 0
45 47 -46 0
48 51 0
48 -50 0
-48 50 -51 0
49 50 0
49 -51 0
-49 51 -50 0
